g3 0 1 0	# problem d4n12R0R7d0005d05
 12 6 1 0 0	# vars, constraints, objectives, ranges, eqns
 2 1	# nonlinear constraints, objectives
 0 0	# network constraints: nonlinear, linear
 10 10 10	# nonlinear vars in constraints, objectives, both
 0 0 0 1	# linear network variables; functions; arith, flags
 0 0 0 0 0	# discrete variables: binary, integer, nonlinear (b,c,o)
 72 12	# nonzeros in Jacobian, gradients
 0 0	# max name lengths: constraints, variables
 0 0 0 0 0	# common exprs: b,c,o,c1,o1
b
0 0.53 2.79
0 0.83 2.71
0 0.2 2.3
0 0.02 2.13
0 0.7 2.47
0 0.46 2.7
0 0.07 2.77
0 0.75 2.31
0 0.27 2.64
0 0.56 2.96
0 0.76 2.53
0 0.3 2.28
r
2 88.608
2 250.742
2 79.406
2 93.407
2 69.03
2 39.056
C0
o1
o2
o2
o2
n8.87
v2
v3
v7
o2
o2
o2
n0.05
v1
v2
v7
C1
o54
9
o2
o2
o2
n6.71
v1
v2
v7
o2
o2
o2
n0.86
v2
v3
v7
o2
o2
o2
o2
n8.98
v0
v0
v1
v4
o2
o2
o2
o2
n6.62
v1
v3
v3
v7
o2
o2
o2
o2
n7.35
v1
v3
v6
v8
o2
o2
o2
o2
n7.02
v2
v5
v7
v7
o2
o2
o2
o2
n6.39
v2
v9
v9
v9
o16
o2
o2
o2
o2
n5.68
v3
v5
v5
v6
o2
o2
o2
o2
n0.68
v7
v8
v9
v9
C2
n0
C3
n0
C4
n0
C5
n0
O0 0
o54
9
o2
o2
o2
n0.05
v1
v2
v7
o2
o2
o2
n8.61
v2
v3
v7
o16
o2
o2
o2
o2
n7.82
v0
v0
v1
v4
o2
o2
o2
o2
n6.67
v1
v3
v3
v7
o2
o2
o2
o2
n2.74
v1
v3
v6
v8
o2
o2
o2
o2
n4.86
v2
v5
v7
v7
o2
o2
o2
o2
n1.69
v2
v9
v9
v9
o2
o2
o2
o2
n5.98
v3
v5
v5
v6
o2
o2
o2
o2
n8.32
v7
v8
v9
v9
k11
6
12
18
24
30
36
42
48
54
60
66
J0 12
0 1.83
1 5.28
2 6.99
3 9.88
4 3.96
5 2.35
6 -4.43
7 9.71
8 -1.66
9 7.27
10 3.73
11 2.89
J1 12
0 8.16
1 1.45
2 7.04
3 -0.51
4 -1.96
5 3.17
6 2.65
7 9.9
8 1.8
9 0.73
10 4.26
11 -6.13
J2 12
0 9.54
1 8.84
2 6.64
3 -8.24
4 7.8
5 2.83
6 3.93
7 6.87
8 1.53
9 4.46
10 3.26
11 0.09
J3 12
0 5.32
1 8.93
2 2.38
3 5.48
4 -3.53
5 8.83
6 9.45
7 5.5
8 0.54
9 7.04
10 8.43
11 2.07
J4 12
0 0.69
1 5.66
2 5.05
3 4.34
4 9.37
5 3.28
6 -0.86
7 7.22
8 1.1
9 5.06
10 3.84
11 0.16
J5 12
0 1.45
1 4.07
2 3.52
3 2.69
4 0.05
5 -3.12
6 0.28
7 0.74
8 4.67
9 6.32
10 4.46
11 0.17
G0 12
0 7.27
1 0.5
2 8.28
3 4.48
4 9.78
5 8.44
6 8.83
7 2.28
8 2.29
9 8.7
10 -4.32
11 9.7
